3
Coordinates from ORCA-job water_opt E  -0.528219360813
  O       0.000000      0.000000      0.117300
  H       0.000000      0.757200     -0.469200
  H       0.000000     -0.757200     -0.469200
3
Coordinates from ORCA-job water_opt E  -0.528599549421
  O       0.000000     -0.000027      0.122485
  H       0.000000      0.769641     -0.471803
  H       0.000000     -0.769613     -0.471782
3
Coordinates from ORCA-job water_opt E  -0.528601722328
  O       0.000000     -0.000048      0.123033
  H       0.000000      0.768547     -0.472085
  H       0.000000     -0.768499     -0.472048
3
Coordinates from ORCA-job water_opt E  -0.528602353172
  O       0.000000     -0.000050      0.123708
  H       0.000000      0.767757     -0.472424
  H       0.000000     -0.767706     -0.472385
3
Coordinates from ORCA-job water_opt E  -0.528602388219
  O       0.000000     -0.000049      0.123804
  H       0.000000      0.767729     -0.472470
  H       0.000000     -0.767680     -0.472433
